objective value:                                 -174
t_x14                                               1 	(obj:-100)
t_x115                                              1 	(obj:-100)
t_y27_115                                           1 	(obj:1)
t_y115_141                                          1 	(obj:1)
t_y115_198                                          1 	(obj:1)
t_y14_23                                            1 	(obj:1)
t_y14_56                                            1 	(obj:1)
t_y14_232                                           1 	(obj:1)
t_y14_83                                            1 	(obj:1)
t_y14_90                                            1 	(obj:1)
t_y14_178                                           1 	(obj:1)
t_y23_115                                           1 	(obj:1)
t_y115_250                                          1 	(obj:1)
t_y38_115                                           1 	(obj:1)
t_y14_231                                           1 	(obj:1)
t_y115_253                                          1 	(obj:1)
t_y14_238                                           1 	(obj:1)
t_y14_19                                            1 	(obj:1)
t_y14_124                                           1 	(obj:1)
t_y115_172                                          1 	(obj:1)
t_y14_192                                           1 	(obj:1)
t_y88_115                                           1 	(obj:1)
t_y115_241                                          1 	(obj:1)
t_y32_115                                           1 	(obj:1)
t_y14_218                                           1 	(obj:1)
t_y14_139                                           1 	(obj:1)
t_y14_61                                            1 	(obj:1)
t_y30_115                                           1 	(obj:1)
